(set-logic QF_S)
(declare-fun var0 () String)
(assert (RegexIn var0 (RegexConcat (RegexStar (RegexPlus (Str2Reg "00"))) (RegexConcat (RegexStar (RegexPlus (Str2Reg "1"))) (RegexConcat (RegexPlus (RegexPlus (Str2Reg "222"))) (RegexConcat (RegexPlus (RegexStar (Str2Reg "3"))) (RegexConcat (RegexPlus (RegexStar (Str2Reg "4"))) (RegexConcat (RegexUnion (RegexPlus (Str2Reg "5")) (RegexPlus (Str2Reg "666"))) (RegexConcat (RegexPlus (RegexStar (Str2Reg "777"))) (RegexConcat (RegexPlus (RegexPlus (Str2Reg "888"))) (RegexConcat (RegexUnion (RegexUnion (Str2Reg "999") (Str2Reg "aaa")) (RegexUnion (Str2Reg "bbb") (Str2Reg "ccc"))) (RegexConcat (RegexPlus (RegexPlus (Str2Reg "d"))) (RegexConcat (RegexPlus (RegexUnion (Str2Reg "e") (Str2Reg "ff"))) (RegexConcat (RegexPlus (RegexUnion (Str2Reg "ggg") (Str2Reg "h"))) (RegexConcat (RegexStar (RegexUnion (Str2Reg "ii") (Str2Reg "j"))) (RegexConcat (RegexPlus (RegexUnion (Str2Reg "kkk") (Str2Reg "lll"))) (RegexConcat (RegexStar (RegexPlus (Str2Reg "mm"))) (RegexConcat (RegexPlus (RegexPlus (Str2Reg "n"))) (RegexConcat (RegexPlus (RegexStar (Str2Reg "oo"))) (RegexConcat (RegexUnion (RegexStar (Str2Reg "p")) (RegexStar (Str2Reg "qqq"))) (RegexConcat (RegexStar (RegexUnion (Str2Reg "rrr") (Str2Reg "ss"))) (RegexConcat (RegexUnion (RegexPlus (Str2Reg "t")) (RegexPlus (Str2Reg "u"))) (RegexConcat (RegexUnion (RegexStar (Str2Reg "vvv")) (RegexStar (Str2Reg "www"))) (RegexConcat (RegexUnion (RegexPlus (Str2Reg "x")) (RegexPlus (Str2Reg "yyy"))) (RegexConcat (RegexStar (RegexStar (Str2Reg "zz"))) (RegexConcat (RegexPlus (RegexPlus (Str2Reg "AAA"))) (RegexConcat (RegexUnion (RegexStar (Str2Reg "BBB")) (RegexStar (Str2Reg "CC"))) (RegexStar (RegexUnion (Str2Reg "DDD") (Str2Reg "EEE"))))))))))))))))))))))))))))))
(assert (not (RegexIn var0 (RegexConcat (RegexPlus (RegexPlus (Str2Reg "0"))) (RegexConcat (RegexUnion (RegexPlus (Str2Reg "1")) (RegexPlus (Str2Reg "222"))) (RegexConcat (RegexPlus (RegexUnion (Str2Reg "333") (Str2Reg "4"))) (RegexConcat (RegexUnion (RegexStar (Str2Reg "55")) (RegexStar (Str2Reg "666"))) (RegexConcat (RegexStar (RegexStar (Str2Reg "777"))) (RegexConcat (RegexPlus (RegexPlus (Str2Reg "8"))) (RegexConcat (RegexPlus (RegexStar (Str2Reg "99"))) (RegexConcat (RegexStar (RegexUnion (Str2Reg "a") (Str2Reg "bbb"))) (RegexConcat (RegexStar (RegexPlus (Str2Reg "c"))) (RegexConcat (RegexStar (RegexPlus (Str2Reg "dd"))) (RegexConcat (RegexPlus (RegexStar (Str2Reg "e"))) (RegexConcat (RegexUnion (RegexPlus (Str2Reg "fff")) (RegexPlus (Str2Reg "ggg"))) (RegexConcat (RegexStar (RegexUnion (Str2Reg "h") (Str2Reg "i"))) (RegexConcat (RegexStar (RegexPlus (Str2Reg "jj"))) (RegexConcat (RegexStar (RegexUnion (Str2Reg "kk") (Str2Reg "ll"))) (RegexConcat (RegexStar (RegexPlus (Str2Reg "m"))) (RegexConcat (RegexPlus (RegexPlus (Str2Reg "n"))) (RegexConcat (RegexStar (RegexUnion (Str2Reg "o") (Str2Reg "pp"))) (RegexConcat (RegexUnion (RegexPlus (Str2Reg "q")) (RegexPlus (Str2Reg "rr"))) (RegexConcat (RegexUnion (RegexStar (Str2Reg "s")) (RegexStar (Str2Reg "tt"))) (RegexConcat (RegexUnion (RegexUnion (Str2Reg "uuu") (Str2Reg "v")) (RegexUnion (Str2Reg "www") (Str2Reg "xxx"))) (RegexConcat (RegexPlus (RegexPlus (Str2Reg "y"))) (RegexConcat (RegexStar (RegexStar (Str2Reg "zz"))) (RegexConcat (RegexUnion (RegexPlus (Str2Reg "AA")) (RegexPlus (Str2Reg "BBB"))) (RegexConcat (RegexUnion (RegexPlus (Str2Reg "CCC")) (RegexPlus (Str2Reg "DD"))) (RegexStar (RegexUnion (Str2Reg "E") (Str2Reg "FF")))))))))))))))))))))))))))))))
(check-sat)